Rodando pra 1h
Optimize a model with 250095 rows, 374378 columns and 2243860 nonzeros
Coefficient statistics:
  Matrix range    [1e+00, 1e+06]
  Objective range [2e-01, 2e-01]
  Bounds range    [1e+00, 1e+06]
  RHS range       [1e+00, 5e+02]
Presolve removed 0 rows and 0 columns (presolve time = 6s) ...
Presolve time: 5.72s
Presolved: 250095 rows, 374378 columns, 2243860 nonzeros
Variable types: 249564 continuous, 124814 integer (124814 binary)
Optimize a model with 250095 rows, 374378 columns and 2243860 nonzeros
Coefficient statistics:
  Matrix range    [1e+00, 1e+06]
  Objective range [2e-01, 2e-01]
  Bounds range    [1e+00, 1e+06]
  RHS range       [1e+00, 5e+02]
Presolved: 250095 rows, 374378 columns, 2243860 nonzeros


Root simplex log...

Iteration    Objective       Primal Inf.    Dual Inf.      Time
       0    0.0000000e+00   1.510975e+03   0.000000e+00     22s
    1055    0.0000000e+00   0.000000e+00   0.000000e+00     23s

Root relaxation: objective 0.000000e+00, 1055 iterations, 2.62 seconds

    Nodes    |    Current Node    |     Objective Bounds      |     Work
 Expl Unexpl |  Obj  Depth IntInf | Incumbent    BestBd   Gap | It/Node Time

     0     0    0.00000    0  521          -    0.00000      -     -  337s
     0     0    0.00000    0  412          -    0.00000      -     -  994s
     0     0    0.00000    0  303          -    0.00000      -     -  996s
     0     0    0.00000    0  197          -    0.00000      -     - 1091s
     0     0    0.00000    0   88          -    0.00000      -     - 1094s
     0     0    0.00000    0   32          -    0.00000      -     - 1126s
     0     0    0.00000    0   28          -    0.00000      -     - 1130s
     0     0    0.00000    0   33          -    0.00000      -     - 1144s
     0     0    0.00000    0   34          -    0.00000      -     - 1148s
     0     0    0.00000    0   28          -    0.00000      -     - 2339s
     0     0    0.00000    0   29          -    0.00000      -     - 2342s
     0     0    0.00000    0   23          -    0.00000      -     - 3414s
     0     0    0.00000    0   37          -    0.00000      -     - 3420s
     0     0    0.00000    0   92          -    0.00000      -     - 3600s

Cutting planes:
  MIR: 5
  Flow cover: 504
  Flow path: 5

Explored 0 nodes (738754 simplex iterations) in 3600.26 seconds
Thread count was 1 (of 4 available processors)

Time limit reached
Best objective -, best bound 0.000000000000e+00, gap -
Tempo: 3591.43 segundos

Error code = 10004
Var::get
